% Generated by MiniZinc 2.9.2
% Solver library: /home/mflippo/apps/MiniZincIDE-2.9.2-bundle-linux-x86_64/share/minizinc/linear
% Command line invocation: minizinc -c --solver linear-solver --fzn 4queens.fzn /home/mflippo/minizinc-benchmarks/queens/queens.mzn -Dn=4 

array [1..3] of int: X_INTRODUCED_15_ = [1,-1,4];
array [1..3] of int: X_INTRODUCED_18_ = [-1,1,-4];
array [1..3] of int: X_INTRODUCED_25_ = [1,-1,3];
array [1..3] of int: X_INTRODUCED_29_ = [-1,1,-5];
array [1..3] of int: X_INTRODUCED_36_ = [1,-1,5];
array [1..3] of int: X_INTRODUCED_39_ = [-1,1,-3];
array [1..3] of int: X_INTRODUCED_55_ = [1,-1,2];
array [1..3] of int: X_INTRODUCED_59_ = [-1,1,-6];
array [1..3] of int: X_INTRODUCED_65_ = [1,-1,6];
array [1..3] of int: X_INTRODUCED_68_ = [-1,1,-2];
array [1..2] of int: X_INTRODUCED_89_ = [-1,1];
var 1..4: X_INTRODUCED_0_;
var 1..4: X_INTRODUCED_1_;
var 1..4: X_INTRODUCED_2_;
var 1..4: X_INTRODUCED_3_;
var 0..1: X_INTRODUCED_9_ ::var_is_introduced ;
var 0..1: X_INTRODUCED_21_ ::var_is_introduced ;
var 0..1: X_INTRODUCED_32_ ::var_is_introduced ;
var 0..1: X_INTRODUCED_43_ ::var_is_introduced ;
var 0..1: X_INTRODUCED_50_ ::var_is_introduced ;
var 0..1: X_INTRODUCED_61_ ::var_is_introduced ;
var 0..1: X_INTRODUCED_72_ ::var_is_introduced ;
var 0..1: X_INTRODUCED_92_ ::var_is_introduced ;
var 0..1: X_INTRODUCED_98_ ::var_is_introduced ;
var 0..1: X_INTRODUCED_103_ ::var_is_introduced ;
var 0..1: X_INTRODUCED_111_ ::var_is_introduced ;
var 0..1: X_INTRODUCED_117_ ::var_is_introduced ;
var 0..1: X_INTRODUCED_123_ ::var_is_introduced ;
var 0..1: X_INTRODUCED_131_ ::var_is_introduced ;
var 0..1: X_INTRODUCED_137_ ::var_is_introduced ;
var 0..1: X_INTRODUCED_142_ ::var_is_introduced ;
array [1..4] of var int: q:: output_array([1..4]) = [X_INTRODUCED_0_,X_INTRODUCED_1_,X_INTRODUCED_2_,X_INTRODUCED_3_];
constraint int_lin_le(X_INTRODUCED_15_,[X_INTRODUCED_0_,X_INTRODUCED_1_,X_INTRODUCED_9_],3);
constraint int_lin_le(X_INTRODUCED_18_,[X_INTRODUCED_0_,X_INTRODUCED_1_,X_INTRODUCED_9_],-1);
constraint int_lin_le(X_INTRODUCED_25_,[X_INTRODUCED_0_,X_INTRODUCED_1_,X_INTRODUCED_21_],3);
constraint int_lin_le(X_INTRODUCED_29_,[X_INTRODUCED_0_,X_INTRODUCED_1_,X_INTRODUCED_21_],-2);
constraint int_lin_le(X_INTRODUCED_36_,[X_INTRODUCED_0_,X_INTRODUCED_1_,X_INTRODUCED_32_],3);
constraint int_lin_le(X_INTRODUCED_39_,[X_INTRODUCED_0_,X_INTRODUCED_1_,X_INTRODUCED_32_],0);
constraint int_lin_le(X_INTRODUCED_15_,[X_INTRODUCED_0_,X_INTRODUCED_2_,X_INTRODUCED_43_],3);
constraint int_lin_le(X_INTRODUCED_18_,[X_INTRODUCED_0_,X_INTRODUCED_2_,X_INTRODUCED_43_],-1);
constraint int_lin_le(X_INTRODUCED_55_,[X_INTRODUCED_0_,X_INTRODUCED_2_,X_INTRODUCED_50_],3);
constraint int_lin_le(X_INTRODUCED_59_,[X_INTRODUCED_0_,X_INTRODUCED_2_,X_INTRODUCED_50_],-3);
constraint int_lin_le(X_INTRODUCED_65_,[X_INTRODUCED_0_,X_INTRODUCED_2_,X_INTRODUCED_61_],3);
constraint int_lin_le(X_INTRODUCED_68_,[X_INTRODUCED_0_,X_INTRODUCED_2_,X_INTRODUCED_61_],1);
constraint int_lin_le(X_INTRODUCED_15_,[X_INTRODUCED_0_,X_INTRODUCED_3_,X_INTRODUCED_72_],3);
constraint int_lin_le(X_INTRODUCED_18_,[X_INTRODUCED_0_,X_INTRODUCED_3_,X_INTRODUCED_72_],-1);
constraint int_lin_le([1,-1],[X_INTRODUCED_0_,X_INTRODUCED_3_],2);
constraint int_lin_le(X_INTRODUCED_89_,[X_INTRODUCED_0_,X_INTRODUCED_3_],2);
constraint int_lin_le(X_INTRODUCED_15_,[X_INTRODUCED_1_,X_INTRODUCED_2_,X_INTRODUCED_92_],3);
constraint int_lin_le(X_INTRODUCED_18_,[X_INTRODUCED_1_,X_INTRODUCED_2_,X_INTRODUCED_92_],-1);
constraint int_lin_le(X_INTRODUCED_25_,[X_INTRODUCED_1_,X_INTRODUCED_2_,X_INTRODUCED_98_],3);
constraint int_lin_le(X_INTRODUCED_29_,[X_INTRODUCED_1_,X_INTRODUCED_2_,X_INTRODUCED_98_],-2);
constraint int_lin_le(X_INTRODUCED_36_,[X_INTRODUCED_1_,X_INTRODUCED_2_,X_INTRODUCED_103_],3);
constraint int_lin_le(X_INTRODUCED_39_,[X_INTRODUCED_1_,X_INTRODUCED_2_,X_INTRODUCED_103_],0);
constraint int_lin_le(X_INTRODUCED_15_,[X_INTRODUCED_1_,X_INTRODUCED_3_,X_INTRODUCED_111_],3);
constraint int_lin_le(X_INTRODUCED_18_,[X_INTRODUCED_1_,X_INTRODUCED_3_,X_INTRODUCED_111_],-1);
constraint int_lin_le(X_INTRODUCED_55_,[X_INTRODUCED_1_,X_INTRODUCED_3_,X_INTRODUCED_117_],3);
constraint int_lin_le(X_INTRODUCED_59_,[X_INTRODUCED_1_,X_INTRODUCED_3_,X_INTRODUCED_117_],-3);
constraint int_lin_le(X_INTRODUCED_65_,[X_INTRODUCED_1_,X_INTRODUCED_3_,X_INTRODUCED_123_],3);
constraint int_lin_le(X_INTRODUCED_68_,[X_INTRODUCED_1_,X_INTRODUCED_3_,X_INTRODUCED_123_],1);
constraint int_lin_le(X_INTRODUCED_15_,[X_INTRODUCED_2_,X_INTRODUCED_3_,X_INTRODUCED_131_],3);
constraint int_lin_le(X_INTRODUCED_18_,[X_INTRODUCED_2_,X_INTRODUCED_3_,X_INTRODUCED_131_],-1);
constraint int_lin_le(X_INTRODUCED_25_,[X_INTRODUCED_2_,X_INTRODUCED_3_,X_INTRODUCED_137_],3);
constraint int_lin_le(X_INTRODUCED_29_,[X_INTRODUCED_2_,X_INTRODUCED_3_,X_INTRODUCED_137_],-2);
constraint int_lin_le(X_INTRODUCED_36_,[X_INTRODUCED_2_,X_INTRODUCED_3_,X_INTRODUCED_142_],3);
constraint int_lin_le(X_INTRODUCED_39_,[X_INTRODUCED_2_,X_INTRODUCED_3_,X_INTRODUCED_142_],0);
solve :: int_search(q,input_order,indomain_split,complete) minimize X_INTRODUCED_0_;
% solve :: int_search(q,input_order,indomain_split,complete) satisfy;
